c uprop, v00.0, 
c reading from data/prog342.c.cnf
c done reading: 0
p cnf 127 556
-66 -91 0
-71 -91 0
66 71 91 0
66 71 -98 0
-66 -71 -98 0
-66 71 98 0
66 -71 98 0
-77 91 0
-77 -79 0
77 79 -91 0
79 -84 -91 0
-79 -84 91 0
79 84 91 0
-79 84 -91 0
77 -89 0
-89 -93 0
-77 89 93 0
-77 93 -95 0
77 -93 -95 0
77 93 95 0
-77 -93 95 0
89 -97 0
-97 -100 0
-89 97 100 0
-69 -89 100 0
-69 89 -100 0
69 89 100 0
69 -89 -100 0
-64 97 0
-64 -74 0
64 74 -97 0
-62 74 -97 0
-62 -74 97 0
62 74 97 0
62 -74 -97 0
-60 64 0
-60 -82 0
60 -64 82 0
-59 -64 82 0
-59 64 -82 0
59 64 82 0
59 -64 -82 0
-57 60 0
-57 -86 0
57 -60 86 0
-56 -60 86 0
-56 60 -86 0
56 60 86 0
56 -60 -86 0
-54 79 0
-54 66 0
54 -66 -79 0
-53 -66 -79 0
-53 66 79 0
53 66 -79 0
53 -66 79 0
51 -71 -93 0
51 -54 -93 0
51 -54 -71 0
-51 71 93 0
-51 54 93 0
-51 54 71 0
-50 -51 93 0
-50 -51 71 0
-50 -51 54 0
50 51 -93 0
50 51 -71 0
50 51 -54 0
50 -54 -71 -93 0
-50 54 71 93 0
48 -79 -100 0
48 -51 -100 0
48 -51 -79 0
-48 79 100 0
-48 51 100 0
-48 51 79 0
-47 -48 100 0
-47 -48 79 0
-47 -48 51 0
47 48 -100 0
47 48 -79 0
47 48 -51 0
47 -51 -79 -100 0
-47 51 79 100 0
45 -74 -93 0
45 -48 -74 0
45 -48 -93 0
-45 74 93 0
-45 48 74 0
-45 48 93 0
-45 74 -103 0
-45 93 -103 0
-45 48 -103 0
45 -74 103 0
45 -93 103 0
45 -48 103 0
-48 -74 -93 103 0
48 74 93 -103 0
-82 -100 104 0
-45 -82 104 0
-45 -100 104 0
82 100 -104 0
45 82 -104 0
45 100 -104 0
82 -104 -106 0
100 -104 -106 0
45 -104 -106 0
-82 104 106 0
-100 104 106 0
-45 104 106 0
-45 -82 -100 106 0
45 82 100 -106 0
-74 -86 107 0
-86 -104 107 0
-74 -104 107 0
74 86 -107 0
86 104 -107 0
74 104 -107 0
86 -107 -109 0
74 -107 -109 0
104 -107 -109 0
-86 107 109 0
-74 107 109 0
-104 107 109 0
-74 -86 -104 109 0
74 86 104 -109 0
82 -110 0
107 -110 0
-82 -107 110 0
-68 -82 -107 0
-68 82 107 0
68 -82 107 0
68 82 -107 0
-72 86 0
-72 110 0
72 -86 -110 0
-80 -86 -110 0
-80 86 110 0
80 -86 110 0
80 86 -110 0
-66 -94 0
-71 -94 0
66 71 94 0
66 71 -101 0
-66 -71 -101 0
-66 71 101 0
66 -71 101 0
-75 94 0
-53 -75 0
53 75 -94 0
53 -83 -94 0
-53 -83 94 0
53 83 94 0
-53 83 -94 0
75 -87 0
-50 -87 0
50 -75 87 0
50 -75 -111 0
-50 75 -111 0
50 75 111 0
-50 -75 111 0
87 -112 0
-47 -112 0
47 -87 112 0
47 -87 -113 0
-47 87 -113 0
47 87 113 0
-47 -87 113 0
112 -114 0
-103 -114 0
103 -112 114 0
103 -112 -117 0
-103 112 -117 0
103 112 117 0
-103 -112 117 0
114 -118 0
-106 -118 0
106 -114 118 0
106 -114 -119 0
-106 114 -119 0
106 114 119 0
-106 -114 119 0
118 -120 0
-109 -120 0
109 -118 120 0
109 -118 -121 0
-109 118 -121 0
109 118 121 0
-109 -118 121 0
120 -122 0
-68 -122 0
68 -120 122 0
68 -120 -123 0
-68 120 -123 0
68 120 123 0
-68 -120 123 0
122 -124 0
-80 -124 0
80 -122 124 0
80 -122 -125 0
-80 122 -125 0
80 122 125 0
-80 -122 125 0
124 -126 0
-72 -126 0
72 -124 126 0
72 -124 -127 0
-72 124 -127 0
72 124 127 0
-72 -124 127 0
-44 -116 0
44 116 0
-41 -43 0
41 43 0
-38 -40 0
38 40 0
-35 -37 0
35 37 0
-32 -34 0
32 34 0
31 -116 0
-31 116 0
30 -43 -116 0
-30 43 116 0
-30 43 0
-30 116 0
-29 -30 43 0
-29 -30 116 0
-29 -30 0
29 30 -43 0
29 30 -116 0
-29 43 116 0
28 -40 -43 0
28 -30 -40 0
28 -30 -43 0
-28 40 43 0
-28 30 40 0
-28 30 43 0
-27 -28 40 0
-27 -28 43 0
-27 -28 30 0
27 28 -40 0
27 28 -43 0
27 28 -30 0
27 -30 -40 -43 0
-27 30 40 43 0
26 -37 -40 0
26 -28 -37 0
26 -28 -40 0
-26 37 40 0
-26 28 37 0
-26 28 40 0
-25 -26 37 0
-25 -26 40 0
-25 -26 28 0
25 26 -37 0
25 26 -40 0
25 26 -28 0
25 -28 -37 -40 0
-25 28 37 40 0
24 -34 -37 0
24 -26 -34 0
24 -26 -37 0
-24 34 37 0
-24 26 34 0
-24 26 37 0
-23 -24 34 0
-23 -24 37 0
-23 -24 26 0
23 24 -34 0
23 24 -37 0
23 24 -26 0
23 -26 -34 -37 0
-23 26 34 37 0
-22 34 0
-22 24 0
22 -24 -34 0
-21 -24 -34 0
-21 24 34 0
21 24 -34 0
21 -24 34 0
20 -31 0
-20 31 0
19 -29 0
-19 29 0
18 -27 -116 0
-18 27 116 0
-18 27 0
-18 116 0
-17 -18 27 0
-17 -18 116 0
-17 -18 0
17 18 -27 0
17 18 -116 0
-17 27 116 0
16 -25 -43 0
16 -18 -25 0
16 -18 -43 0
-16 25 43 0
-16 18 25 0
-16 18 43 0
-15 -16 25 0
-15 -16 43 0
-15 -16 18 0
15 16 -25 0
15 16 -43 0
15 16 -18 0
15 -18 -25 -43 0
-15 18 25 43 0
14 -23 -40 0
14 -16 -23 0
14 -16 -40 0
-14 23 40 0
-14 16 23 0
-14 16 40 0
-13 -14 23 0
-13 -14 40 0
-13 -14 16 0
13 14 -23 0
13 14 -40 0
13 14 -16 0
13 -16 -23 -40 0
-13 16 23 40 0
12 -21 -37 0
12 -14 -21 0
12 -14 -37 0
-12 21 37 0
-12 14 21 0
-12 14 37 0
-11 -12 21 0
-11 -12 37 0
-11 -12 14 0
11 12 -21 0
11 12 -37 0
11 12 -14 0
11 -14 -21 -37 0
-11 14 21 37 0
10 -22 -34 0
10 -12 -22 0
10 -12 -34 0
-10 22 34 0
-10 12 22 0
-10 12 34 0
-10 22 -65 0
-10 34 -65 0
-10 12 -65 0
10 -22 65 0
10 -34 65 0
10 -12 65 0
-12 -22 -34 65 0
12 22 34 -65 0
19 -70 0
-19 70 0
-19 -78 0
19 78 0
-17 -70 92 0
17 -92 0
17 70 -92 0
70 -92 0
17 -92 -99 0
-92 -99 0
70 -92 -99 0
-17 92 99 0
-70 92 99 0
17 70 -99 0
-15 73 -92 0
15 -73 0
15 -73 92 0
-73 92 0
15 -73 -81 0
-73 -81 0
-73 -81 92 0
-15 73 81 0
73 81 -92 0
15 -81 92 0
-13 85 -116 0
-13 -73 85 0
-73 85 -116 0
13 -85 116 0
13 73 -85 0
73 -85 116 0
-9 13 -85 0
-9 -85 116 0
-9 73 -85 0
9 -13 85 0
9 85 -116 0
9 -73 85 0
9 -13 -73 -116 0
-9 13 73 116 0
8 -11 -43 0
8 -11 -85 0
8 -43 -85 0
-8 11 43 0
-8 11 85 0
-8 43 85 0
-7 -8 11 0
-7 -8 43 0
-7 -8 85 0
7 8 -11 0
7 8 -43 0
7 8 -85 0
7 -11 -43 -85 0
-7 11 43 85 0
-40 -65 115 0
-8 -65 115 0
-8 -40 115 0
40 65 -115 0
8 65 -115 0
8 40 -115 0
-42 65 -115 0
40 -42 -115 0
8 -42 -115 0
42 -65 115 0
-40 42 115 0
-8 42 115 0
-8 -40 42 -65 0
8 40 -42 65 0
-10 -37 39 0
-10 39 -115 0
-37 39 -115 0
10 37 -39 0
10 -39 115 0
37 -39 115 0
10 -36 -39 0
-36 37 -39 0
-36 -39 115 0
-10 36 39 0
36 -37 39 0
36 39 -115 0
-10 36 -37 -115 0
10 -36 37 115 0
-33 34 0
-33 39 0
33 -34 -39 0
-6 -34 -39 0
-6 34 39 0
6 -34 39 0
6 34 -39 0
-5 -20 0
5 20 0
-4 -78 0
4 78 0
-3 -99 0
3 99 0
-2 -81 0
2 81 0
-1 -9 0
1 9 0
-7 -90 0
7 90 0
-42 -76 0
42 76 0
-36 -88 0
36 88 0
-6 -96 0
6 96 0
-33 -63 0
33 63 0
-61 66 0
20 -61 0
-20 61 -66 0
20 -66 0
-20 66 0
58 -71 -78 0
58 -61 -71 0
58 -61 -78 0
-58 71 78 0
-58 61 71 0
-58 61 78 0
58 -71 0
58 -78 0
58 -61 0
-61 -71 -78 0
-53 55 -99 0
-53 55 -58 0
55 -58 -99 0
53 -55 99 0
53 -55 58 0
-55 58 99 0
53 -55 0
-55 99 0
-55 58 0
53 58 99 0
-50 52 -81 0
-50 52 -55 0
52 -55 -81 0
50 -52 81 0
50 -52 55 0
-52 55 81 0
50 -52 0
-52 81 0
-52 55 0
50 55 81 0
-9 -47 49 0
-47 49 -52 0
-9 49 -52 0
9 47 -49 0
47 -49 52 0
9 -49 52 0
47 -49 0
9 -49 0
-49 52 0
9 47 52 0
-7 46 -103 0
46 -49 -103 0
-7 46 -49 0
7 -46 103 0
-46 49 103 0
7 -46 49 0
46 -103 0
-7 46 0
46 -49 0
-7 -49 -103 0
-42 102 -106 0
-46 102 -106 0
-42 -46 102 0
42 -102 106 0
46 -102 106 0
42 46 -102 0
102 -106 0
-42 102 0
-46 102 0
-42 -46 -106 0
-36 105 -109 0
-102 105 -109 0
-36 -102 105 0
36 -105 109 0
102 -105 109 0
36 102 -105 0
105 -109 0
-36 105 0
-102 105 0
-36 -102 -109 0
-6 -68 108 0
-68 -105 108 0
-6 -105 108 0
6 68 -108 0
68 105 -108 0
6 105 -108 0
-68 108 0
-6 108 0
-105 108 0
-6 -68 -105 0
-33 67 -80 0
67 -80 -108 0
-33 67 -108 0
33 -67 80 0
-67 80 108 0
33 -67 108 0
67 -80 0
-33 67 0
67 -108 0
-33 -80 -108 0
-67 -72 0
67 -72 0
-67 72 0
